
  12    4
  10   10   10   10

   0   0   0   0   0   7 2 3 4 5 8 10 11 
   4  10  10  10  10   2 7 6 
   9  10  10  10  10   2 7 6 
   1  10  10  10  10   1 6 
   5  10  10  10  10   1 6 
   7  10  10  10  10   1 9 
   9  10  10  10  10   1 9 
   9  10  10  10  10   1 9 
   9  10  10  10  10   1 12
   2  10  10  10  10   1 12
   6  10  10  10  10   1 12
   0   0   0   0   0   0 
